c sudoku, order: 9, holes: 64
c 
c 5......7.
c ...3..6..
c ...1.....
c ...6..2.1
c 4.8......
c ......3..
c ....57.4.
c .1..8....
c .2.......
c 
p cnf 297 2721
-1 -2 0
-1 -3 0
-1 -4 0
-1 -5 0
-2 -3 0
-2 -4 0
-2 -5 0
-3 -4 0
-3 -5 0
-4 -5 0
-6 -7 0
-6 -8 0
-6 -9 0
-6 -10 0
-6 -11 0
-7 -8 0
-7 -9 0
-7 -10 0
-7 -11 0
-8 -9 0
-8 -10 0
-8 -11 0
-9 -10 0
-9 -11 0
-10 -11 0
-12 -13 0
-12 -14 0
-12 -15 0
-13 -14 0
-13 -15 0
-14 -15 0
-16 -17 0
-16 -18 0
-16 -19 0
-17 -18 0
-17 -19 0
-18 -19 0
-20 -21 0
-20 -22 0
-20 -23 0
-20 -24 0
-21 -22 0
-21 -23 0
-21 -24 0
-22 -23 0
-22 -24 0
-23 -24 0
-25 -26 0
-25 -27 0
-25 -28 0
-26 -27 0
-26 -28 0
-27 -28 0
-29 -30 0
-29 -31 0
-29 -32 0
-29 -33 0
-30 -31 0
-30 -32 0
-30 -33 0
-31 -32 0
-31 -33 0
-32 -33 0
-34 -35 0
-34 -36 0
-34 -37 0
-34 -38 0
-35 -36 0
-35 -37 0
-35 -38 0
-36 -37 0
-36 -38 0
-37 -38 0
-39 -40 0
-39 -41 0
-39 -42 0
-40 -41 0
-40 -42 0
-41 -42 0
-43 -44 0
-43 -45 0
-43 -46 0
-43 -47 0
-44 -45 0
-44 -46 0
-44 -47 0
-45 -46 0
-45 -47 0
-46 -47 0
-48 -49 0
-48 -50 0
-48 -51 0
-49 -50 0
-49 -51 0
-50 -51 0
-52 -53 0
-52 -54 0
-52 -55 0
-52 -56 0
-53 -54 0
-53 -55 0
-53 -56 0
-54 -55 0
-54 -56 0
-55 -56 0
-57 -58 0
-57 -59 0
-57 -60 0
-57 -61 0
-58 -59 0
-58 -60 0
-58 -61 0
-59 -60 0
-59 -61 0
-60 -61 0
-62 -63 0
-62 -64 0
-62 -65 0
-62 -66 0
-63 -64 0
-63 -65 0
-63 -66 0
-64 -65 0
-64 -66 0
-65 -66 0
-67 -68 0
-67 -69 0
-67 -70 0
-67 -71 0
-67 -72 0
-68 -69 0
-68 -70 0
-68 -71 0
-68 -72 0
-69 -70 0
-69 -71 0
-69 -72 0
-70 -71 0
-70 -72 0
-71 -72 0
-73 -74 0
-73 -75 0
-73 -76 0
-73 -77 0
-73 -78 0
-74 -75 0
-74 -76 0
-74 -77 0
-74 -78 0
-75 -76 0
-75 -77 0
-75 -78 0
-76 -77 0
-76 -78 0
-77 -78 0
-79 -80 0
-79 -81 0
-79 -82 0
-79 -83 0
-79 -84 0
-80 -81 0
-80 -82 0
-80 -83 0
-80 -84 0
-81 -82 0
-81 -83 0
-81 -84 0
-82 -83 0
-82 -84 0
-83 -84 0
-85 -86 0
-85 -87 0
-85 -88 0
-85 -89 0
-86 -87 0
-86 -88 0
-86 -89 0
-87 -88 0
-87 -89 0
-88 -89 0
-90 -91 0
-90 -92 0
-90 -93 0
-90 -94 0
-90 -95 0
-91 -92 0
-91 -93 0
-91 -94 0
-91 -95 0
-92 -93 0
-92 -94 0
-92 -95 0
-93 -94 0
-93 -95 0
-94 -95 0
-96 -97 0
-96 -98 0
-96 -99 0
-97 -98 0
-97 -99 0
-98 -99 0
-100 -101 0
-100 -102 0
-100 -103 0
-100 -104 0
-101 -102 0
-101 -103 0
-101 -104 0
-102 -103 0
-102 -104 0
-103 -104 0
-105 -106 0
-105 -107 0
-105 -108 0
-105 -109 0
-105 -110 0
-106 -107 0
-106 -108 0
-106 -109 0
-106 -110 0
-107 -108 0
-107 -109 0
-107 -110 0
-108 -109 0
-108 -110 0
-109 -110 0
-111 -112 0
-111 -113 0
-112 -113 0
-114 -115 0
-114 -116 0
-114 -117 0
-115 -116 0
-115 -117 0
-116 -117 0
-118 -119 0
-118 -120 0
-118 -121 0
-119 -120 0
-119 -121 0
-120 -121 0
-122 -123 0
-122 -124 0
-122 -125 0
-123 -124 0
-123 -125 0
-124 -125 0
-126 -127 0
-126 -128 0
-126 -129 0
-126 -130 0
-127 -128 0
-127 -129 0
-127 -130 0
-128 -129 0
-128 -130 0
-129 -130 0
-131 -132 0
-131 -133 0
-132 -133 0
-134 -135 0
-134 -136 0
-134 -137 0
-134 -138 0
-135 -136 0
-135 -137 0
-135 -138 0
-136 -137 0
-136 -138 0
-137 -138 0
-139 -140 0
-139 -141 0
-139 -142 0
-140 -141 0
-140 -142 0
-141 -142 0
-143 -144 0
-143 -145 0
-143 -146 0
-143 -147 0
-144 -145 0
-144 -146 0
-144 -147 0
-145 -146 0
-145 -147 0
-146 -147 0
-148 -149 0
-148 -150 0
-148 -151 0
-148 -152 0
-149 -150 0
-149 -151 0
-149 -152 0
-150 -151 0
-150 -152 0
-151 -152 0
-153 -154 0
-153 -155 0
-154 -155 0
-156 -157 0
-156 -158 0
-157 -158 0
-159 -160 0
-159 -161 0
-159 -162 0
-160 -161 0
-160 -162 0
-161 -162 0
-163 -164 0
-163 -165 0
-163 -166 0
-163 -167 0
-164 -165 0
-164 -166 0
-164 -167 0
-165 -166 0
-165 -167 0
-166 -167 0
-168 -169 0
-168 -170 0
-168 -171 0
-169 -170 0
-169 -171 0
-170 -171 0
-172 -173 0
-172 -174 0
-172 -175 0
-172 -176 0
-172 -177 0
-173 -174 0
-173 -175 0
-173 -176 0
-173 -177 0
-174 -175 0
-174 -176 0
-174 -177 0
-175 -176 0
-175 -177 0
-176 -177 0
-178 -179 0
-178 -180 0
-178 -181 0
-178 -182 0
-178 -183 0
-179 -180 0
-179 -181 0
-179 -182 0
-179 -183 0
-180 -181 0
-180 -182 0
-180 -183 0
-181 -182 0
-181 -183 0
-182 -183 0
-184 -185 0
-184 -186 0
-184 -187 0
-184 -188 0
-185 -186 0
-185 -187 0
-185 -188 0
-186 -187 0
-186 -188 0
-187 -188 0
-189 -190 0
-189 -191 0
-189 -192 0
-189 -193 0
-189 -194 0
-190 -191 0
-190 -192 0
-190 -193 0
-190 -194 0
-191 -192 0
-191 -193 0
-191 -194 0
-192 -193 0
-192 -194 0
-193 -194 0
-195 -196 0
-195 -197 0
-195 -198 0
-196 -197 0
-196 -198 0
-197 -198 0
-199 -200 0
-199 -201 0
-199 -202 0
-199 -203 0
-199 -204 0
-200 -201 0
-200 -202 0
-200 -203 0
-200 -204 0
-201 -202 0
-201 -203 0
-201 -204 0
-202 -203 0
-202 -204 0
-203 -204 0
-205 -206 0
-205 -207 0
-205 -208 0
-206 -207 0
-206 -208 0
-207 -208 0
-209 -210 0
-209 -211 0
-209 -212 0
-210 -211 0
-210 -212 0
-211 -212 0
-213 -214 0
-213 -215 0
-214 -215 0
-216 -217 0
-218 -219 0
-218 -220 0
-219 -220 0
-221 -222 0
-221 -223 0
-221 -224 0
-221 -225 0
-222 -223 0
-222 -224 0
-222 -225 0
-223 -224 0
-223 -225 0
-224 -225 0
-226 -227 0
-226 -228 0
-226 -229 0
-227 -228 0
-227 -229 0
-228 -229 0
-230 -231 0
-230 -232 0
-230 -233 0
-230 -234 0
-230 -235 0
-231 -232 0
-231 -233 0
-231 -234 0
-231 -235 0
-232 -233 0
-232 -234 0
-232 -235 0
-233 -234 0
-233 -235 0
-234 -235 0
-236 -237 0
-236 -238 0
-237 -238 0
-239 -240 0
-239 -241 0
-239 -242 0
-239 -243 0
-240 -241 0
-240 -242 0
-240 -243 0
-241 -242 0
-241 -243 0
-242 -243 0
-244 -245 0
-244 -246 0
-245 -246 0
-247 -248 0
-247 -249 0
-247 -250 0
-247 -251 0
-248 -249 0
-248 -250 0
-248 -251 0
-249 -250 0
-249 -251 0
-250 -251 0
-252 -253 0
-252 -254 0
-252 -255 0
-252 -256 0
-252 -257 0
-253 -254 0
-253 -255 0
-253 -256 0
-253 -257 0
-254 -255 0
-254 -256 0
-254 -257 0
-255 -256 0
-255 -257 0
-256 -257 0
-258 -259 0
-258 -260 0
-258 -261 0
-258 -262 0
-259 -260 0
-259 -261 0
-259 -262 0
-260 -261 0
-260 -262 0
-261 -262 0
-263 -264 0
-263 -265 0
-263 -266 0
-263 -267 0
-263 -268 0
-264 -265 0
-264 -266 0
-264 -267 0
-264 -268 0
-265 -266 0
-265 -267 0
-265 -268 0
-266 -267 0
-266 -268 0
-267 -268 0
-269 -270 0
-271 -272 0
-271 -273 0
-271 -274 0
-271 -275 0
-272 -273 0
-272 -274 0
-272 -275 0
-273 -274 0
-273 -275 0
-274 -275 0
-276 -277 0
-276 -278 0
-276 -279 0
-276 -280 0
-277 -278 0
-277 -279 0
-277 -280 0
-278 -279 0
-278 -280 0
-279 -280 0
-281 -282 0
-281 -283 0
-281 -284 0
-281 -285 0
-282 -283 0
-282 -284 0
-282 -285 0
-283 -284 0
-283 -285 0
-284 -285 0
-286 -287 0
-286 -288 0
-286 -289 0
-286 -290 0
-286 -291 0
-287 -288 0
-287 -289 0
-287 -290 0
-287 -291 0
-288 -289 0
-288 -290 0
-288 -291 0
-289 -290 0
-289 -291 0
-290 -291 0
-292 -293 0
-292 -294 0
-292 -295 0
-292 -296 0
-292 -297 0
-293 -294 0
-293 -295 0
-293 -296 0
-293 -297 0
-294 -295 0
-294 -296 0
-294 -297 0
-295 -296 0
-295 -297 0
-296 -297 0
-6 -25 0
-7 -12 0
-7 -16 0
-7 -20 0
-7 -29 0
-12 -16 0
-12 -20 0
-12 -29 0
-16 -20 0
-16 -29 0
-20 -29 0
-1 -8 0
-1 -30 0
-8 -30 0
-2 -9 0
-2 -13 0
-2 -17 0
-2 -21 0
-2 -26 0
-2 -31 0
-9 -13 0
-9 -17 0
-9 -21 0
-9 -26 0
-9 -31 0
-13 -17 0
-13 -21 0
-13 -26 0
-13 -31 0
-17 -21 0
-17 -26 0
-17 -31 0
-21 -26 0
-21 -31 0
-26 -31 0
-3 -10 0
-3 -18 0
-3 -22 0
-10 -18 0
-10 -22 0
-18 -22 0
-4 -14 0
-4 -23 0
-4 -27 0
-4 -32 0
-14 -23 0
-14 -27 0
-14 -32 0
-23 -27 0
-23 -32 0
-27 -32 0
-5 -11 0
-5 -15 0
-5 -19 0
-5 -24 0
-5 -28 0
-5 -33 0
-11 -15 0
-11 -19 0
-11 -24 0
-11 -28 0
-11 -33 0
-15 -19 0
-15 -24 0
-15 -28 0
-15 -33 0
-19 -24 0
-19 -28 0
-19 -33 0
-24 -28 0
-24 -33 0
-28 -33 0
-34 -43 0
-34 -57 0
-43 -57 0
-35 -44 0
-35 -48 0
-35 -52 0
-35 -58 0
-35 -62 0
-44 -48 0
-44 -52 0
-44 -58 0
-44 -62 0
-48 -52 0
-48 -58 0
-48 -62 0
-52 -58 0
-52 -62 0
-58 -62 0
-39 -45 0
-39 -49 0
-39 -53 0
-39 -63 0
-45 -49 0
-45 -53 0
-45 -63 0
-49 -53 0
-49 -63 0
-53 -63 0
-54 -59 0
-54 -64 0
-59 -64 0
-36 -40 0
-36 -46 0
-36 -50 0
-40 -46 0
-40 -50 0
-46 -50 0
-37 -41 0
-37 -55 0
-37 -60 0
-37 -65 0
-41 -55 0
-41 -60 0
-41 -65 0
-55 -60 0
-55 -65 0
-60 -65 0
-38 -42 0
-38 -47 0
-38 -51 0
-38 -56 0
-38 -61 0
-38 -66 0
-42 -47 0
-42 -51 0
-42 -56 0
-42 -61 0
-42 -66 0
-47 -51 0
-47 -56 0
-47 -61 0
-47 -66 0
-51 -56 0
-51 -61 0
-51 -66 0
-56 -61 0
-56 -66 0
-61 -66 0
-67 -79 0
-67 -85 0
-67 -90 0
-67 -100 0
-67 -105 0
-79 -85 0
-79 -90 0
-79 -100 0
-79 -105 0
-85 -90 0
-85 -100 0
-85 -105 0
-90 -100 0
-90 -105 0
-100 -105 0
-68 -73 0
-68 -80 0
-68 -101 0
-68 -106 0
-73 -80 0
-73 -101 0
-73 -106 0
-80 -101 0
-80 -106 0
-101 -106 0
-74 -81 0
-74 -86 0
-74 -91 0
-74 -96 0
-74 -107 0
-81 -86 0
-81 -91 0
-81 -96 0
-81 -107 0
-86 -91 0
-86 -96 0
-86 -107 0
-91 -96 0
-91 -107 0
-96 -107 0
-92 -97 0
-92 -102 0
-92 -108 0
-97 -102 0
-97 -108 0
-102 -108 0
-69 -75 0
-69 -82 0
-69 -87 0
-69 -93 0
-75 -82 0
-75 -87 0
-75 -93 0
-82 -87 0
-82 -93 0
-87 -93 0
-70 -76 0
-70 -83 0
-70 -88 0
-76 -83 0
-76 -88 0
-83 -88 0
-71 -77 0
-71 -94 0
-71 -98 0
-71 -103 0
-71 -109 0
-77 -94 0
-77 -98 0
-77 -103 0
-77 -109 0
-94 -98 0
-94 -103 0
-94 -109 0
-98 -103 0
-98 -109 0
-103 -109 0
-72 -78 0
-72 -84 0
-72 -89 0
-72 -95 0
-72 -99 0
-72 -104 0
-72 -110 0
-78 -84 0
-78 -89 0
-78 -95 0
-78 -99 0
-78 -104 0
-78 -110 0
-84 -89 0
-84 -95 0
-84 -99 0
-84 -104 0
-84 -110 0
-89 -95 0
-89 -99 0
-89 -104 0
-89 -110 0
-95 -99 0
-95 -104 0
-95 -110 0
-99 -104 0
-99 -110 0
-104 -110 0
-111 -114 0
-111 -118 0
-111 -122 0
-111 -126 0
-114 -118 0
-114 -122 0
-114 -126 0
-118 -122 0
-118 -126 0
-122 -126 0
-123 -127 0
-115 -119 0
-115 -128 0
-115 -131 0
-119 -128 0
-119 -131 0
-128 -131 0
-112 -116 0
-112 -120 0
-112 -124 0
-116 -120 0
-116 -124 0
-120 -124 0
-129 -132 0
-113 -117 0
-113 -121 0
-113 -125 0
-113 -130 0
-113 -133 0
-117 -121 0
-117 -125 0
-117 -130 0
-117 -133 0
-121 -125 0
-121 -130 0
-121 -133 0
-125 -130 0
-125 -133 0
-130 -133 0
-143 -148 0
-139 -144 0
-139 -149 0
-144 -149 0
-134 -145 0
-134 -150 0
-145 -150 0
-135 -140 0
-135 -151 0
-135 -153 0
-135 -156 0
-135 -159 0
-140 -151 0
-140 -153 0
-140 -156 0
-140 -159 0
-151 -153 0
-151 -156 0
-151 -159 0
-153 -156 0
-153 -159 0
-156 -159 0
-136 -157 0
-136 -160 0
-157 -160 0
-137 -141 0
-137 -146 0
-137 -154 0
-137 -161 0
-141 -146 0
-141 -154 0
-141 -161 0
-146 -154 0
-146 -161 0
-154 -161 0
-138 -142 0
-138 -147 0
-138 -152 0
-138 -155 0
-138 -158 0
-138 -162 0
-142 -147 0
-142 -152 0
-142 -155 0
-142 -158 0
-142 -162 0
-147 -152 0
-147 -155 0
-147 -158 0
-147 -162 0
-152 -155 0
-152 -158 0
-152 -162 0
-155 -158 0
-155 -162 0
-158 -162 0
-163 -172 0
-163 -184 0
-163 -189 0
-172 -184 0
-172 -189 0
-184 -189 0
-164 -173 0
-164 -178 0
-164 -185 0
-164 -190 0
-173 -178 0
-173 -185 0
-173 -190 0
-178 -185 0
-178 -190 0
-185 -190 0
-179 -186 0
-179 -191 0
-179 -199 0
-186 -191 0
-186 -199 0
-191 -199 0
-168 -174 0
-168 -180 0
-168 -192 0
-168 -195 0
-168 -200 0
-174 -180 0
-174 -192 0
-174 -195 0
-174 -200 0
-180 -192 0
-180 -195 0
-180 -200 0
-192 -195 0
-192 -200 0
-195 -200 0
-165 -169 0
-165 -175 0
-165 -196 0
-165 -201 0
-169 -175 0
-169 -196 0
-169 -201 0
-175 -196 0
-175 -201 0
-196 -201 0
-166 -170 0
-166 -176 0
-166 -181 0
-166 -187 0
-166 -202 0
-170 -176 0
-170 -181 0
-170 -187 0
-170 -202 0
-176 -181 0
-176 -187 0
-176 -202 0
-181 -187 0
-181 -202 0
-187 -202 0
-182 -193 0
-182 -197 0
-182 -203 0
-193 -197 0
-193 -203 0
-197 -203 0
-167 -171 0
-167 -177 0
-167 -183 0
-167 -188 0
-167 -194 0
-167 -198 0
-167 -204 0
-171 -177 0
-171 -183 0
-171 -188 0
-171 -194 0
-171 -198 0
-171 -204 0
-177 -183 0
-177 -188 0
-177 -194 0
-177 -198 0
-177 -204 0
-183 -188 0
-183 -194 0
-183 -198 0
-183 -204 0
-188 -194 0
-188 -198 0
-188 -204 0
-194 -198 0
-194 -204 0
-198 -204 0
-216 -221 0
-205 -209 0
-205 -213 0
-205 -222 0
-209 -213 0
-209 -222 0
-213 -222 0
-206 -210 0
-206 -214 0
-206 -223 0
-210 -214 0
-210 -223 0
-214 -223 0
-207 -211 0
-207 -219 0
-207 -224 0
-211 -219 0
-211 -224 0
-219 -224 0
-208 -212 0
-208 -215 0
-208 -217 0
-208 -220 0
-208 -225 0
-212 -215 0
-212 -217 0
-212 -220 0
-212 -225 0
-215 -217 0
-215 -220 0
-215 -225 0
-217 -220 0
-217 -225 0
-220 -225 0
-236 -239 0
-236 -247 0
-236 -252 0
-239 -247 0
-239 -252 0
-247 -252 0
-226 -230 0
-226 -240 0
-226 -248 0
-226 -253 0
-230 -240 0
-230 -248 0
-230 -253 0
-240 -248 0
-240 -253 0
-248 -253 0
-231 -237 0
-231 -241 0
-237 -241 0
-232 -244 0
-232 -249 0
-232 -254 0
-244 -249 0
-244 -254 0
-249 -254 0
-227 -233 0
-227 -242 0
-227 -250 0
-227 -255 0
-233 -242 0
-233 -250 0
-233 -255 0
-242 -250 0
-242 -255 0
-250 -255 0
-228 -234 0
-228 -245 0
-228 -256 0
-234 -245 0
-234 -256 0
-245 -256 0
-229 -235 0
-229 -238 0
-229 -243 0
-229 -246 0
-229 -251 0
-229 -257 0
-235 -238 0
-235 -243 0
-235 -246 0
-235 -251 0
-235 -257 0
-238 -243 0
-238 -246 0
-238 -251 0
-238 -257 0
-243 -246 0
-243 -251 0
-243 -257 0
-246 -251 0
-246 -257 0
-251 -257 0
-271 -276 0
-271 -281 0
-271 -286 0
-276 -281 0
-276 -286 0
-281 -286 0
-258 -263 0
-258 -272 0
-258 -277 0
-258 -287 0
-258 -292 0
-263 -272 0
-263 -277 0
-263 -287 0
-263 -292 0
-272 -277 0
-272 -287 0
-272 -292 0
-277 -287 0
-277 -292 0
-287 -292 0
-264 -269 0
-264 -273 0
-264 -278 0
-269 -273 0
-269 -278 0
-273 -278 0
-265 -282 0
-265 -288 0
-265 -293 0
-282 -288 0
-282 -293 0
-288 -293 0
-259 -266 0
-259 -274 0
-259 -279 0
-259 -289 0
-259 -294 0
-266 -274 0
-266 -279 0
-266 -289 0
-266 -294 0
-274 -279 0
-274 -289 0
-274 -294 0
-279 -289 0
-279 -294 0
-289 -294 0
-260 -267 0
-260 -283 0
-260 -295 0
-267 -283 0
-267 -295 0
-283 -295 0
-261 -284 0
-261 -290 0
-261 -296 0
-284 -290 0
-284 -296 0
-290 -296 0
-262 -268 0
-262 -270 0
-262 -275 0
-262 -280 0
-262 -285 0
-262 -291 0
-262 -297 0
-268 -270 0
-268 -275 0
-268 -280 0
-268 -285 0
-268 -291 0
-268 -297 0
-270 -275 0
-270 -280 0
-270 -285 0
-270 -291 0
-270 -297 0
-275 -280 0
-275 -285 0
-275 -291 0
-275 -297 0
-280 -285 0
-280 -291 0
-280 -297 0
-285 -291 0
-285 -297 0
-291 -297 0
-34 -163 0
-35 -67 0
-35 -164 0
-67 -164 0
-68 -111 0
-68 -205 0
-68 -226 0
-68 -258 0
-111 -205 0
-111 -226 0
-111 -258 0
-205 -226 0
-205 -258 0
-226 -258 0
-69 -165 0
-69 -206 0
-69 -227 0
-69 -259 0
-165 -206 0
-165 -227 0
-165 -259 0
-206 -227 0
-206 -259 0
-227 -259 0
-36 -70 0
-36 -112 0
-36 -166 0
-36 -228 0
-36 -260 0
-70 -112 0
-70 -166 0
-70 -228 0
-70 -260 0
-112 -166 0
-112 -228 0
-112 -260 0
-166 -228 0
-166 -260 0
-228 -260 0
-37 -71 0
-37 -207 0
-37 -261 0
-71 -207 0
-71 -261 0
-207 -261 0
-38 -72 0
-38 -113 0
-38 -167 0
-38 -208 0
-38 -229 0
-38 -262 0
-72 -113 0
-72 -167 0
-72 -208 0
-72 -229 0
-72 -262 0
-113 -167 0
-113 -208 0
-113 -229 0
-113 -262 0
-167 -208 0
-167 -229 0
-167 -262 0
-208 -229 0
-208 -262 0
-229 -262 0
-1 -73 0
-1 -114 0
-1 -134 0
-1 -209 0
-73 -114 0
-73 -134 0
-73 -209 0
-114 -134 0
-114 -209 0
-134 -209 0
-2 -39 0
-2 -74 0
-39 -74 0
-115 -135 0
-115 -168 0
-135 -168 0
-3 -75 0
-3 -136 0
-3 -169 0
-3 -210 0
-75 -136 0
-75 -169 0
-75 -210 0
-136 -169 0
-136 -210 0
-169 -210 0
-40 -76 0
-40 -116 0
-40 -137 0
-40 -170 0
-76 -116 0
-76 -137 0
-76 -170 0
-116 -137 0
-116 -170 0
-137 -170 0
-4 -41 0
-4 -77 0
-4 -211 0
-41 -77 0
-41 -211 0
-77 -211 0
-5 -42 0
-5 -78 0
-5 -117 0
-5 -138 0
-5 -171 0
-5 -212 0
-42 -78 0
-42 -117 0
-42 -138 0
-42 -171 0
-42 -212 0
-78 -117 0
-78 -138 0
-78 -171 0
-78 -212 0
-117 -138 0
-117 -171 0
-117 -212 0
-138 -171 0
-138 -212 0
-171 -212 0
-6 -43 0
-6 -172 0
-43 -172 0
-7 -44 0
-7 -79 0
-7 -173 0
-44 -79 0
-44 -173 0
-79 -173 0
-8 -80 0
-8 -118 0
-8 -213 0
-8 -230 0
-8 -263 0
-80 -118 0
-80 -213 0
-80 -230 0
-80 -263 0
-118 -213 0
-118 -230 0
-118 -263 0
-213 -230 0
-213 -263 0
-230 -263 0
-9 -45 0
-9 -81 0
-9 -231 0
-9 -264 0
-45 -81 0
-45 -231 0
-45 -264 0
-81 -231 0
-81 -264 0
-231 -264 0
-119 -174 0
-119 -232 0
-119 -265 0
-174 -232 0
-174 -265 0
-232 -265 0
-10 -82 0
-10 -175 0
-10 -214 0
-10 -233 0
-10 -266 0
-82 -175 0
-82 -214 0
-82 -233 0
-82 -266 0
-175 -214 0
-175 -233 0
-175 -266 0
-214 -233 0
-214 -266 0
-233 -266 0
-46 -83 0
-46 -120 0
-46 -176 0
-46 -234 0
-46 -267 0
-83 -120 0
-83 -176 0
-83 -234 0
-83 -267 0
-120 -176 0
-120 -234 0
-120 -267 0
-176 -234 0
-176 -267 0
-234 -267 0
-11 -47 0
-11 -84 0
-11 -121 0
-11 -177 0
-11 -215 0
-11 -235 0
-11 -268 0
-47 -84 0
-47 -121 0
-47 -177 0
-47 -215 0
-47 -235 0
-47 -268 0
-84 -121 0
-84 -177 0
-84 -215 0
-84 -235 0
-84 -268 0
-121 -177 0
-121 -215 0
-121 -235 0
-121 -268 0
-177 -215 0
-177 -235 0
-177 -268 0
-215 -235 0
-215 -268 0
-235 -268 0
-12 -139 0
-12 -178 0
-12 -216 0
-12 -236 0
-139 -178 0
-139 -216 0
-139 -236 0
-178 -216 0
-178 -236 0
-216 -236 0
-13 -179 0
-13 -237 0
-13 -269 0
-179 -237 0
-179 -269 0
-237 -269 0
-140 -180 0
-141 -181 0
-14 -182 0
-15 -142 0
-15 -183 0
-15 -217 0
-15 -238 0
-15 -270 0
-142 -183 0
-142 -217 0
-142 -238 0
-142 -270 0
-183 -217 0
-183 -238 0
-183 -270 0
-217 -238 0
-217 -270 0
-238 -270 0
-143 -184 0
-143 -271 0
-184 -271 0
-16 -48 0
-16 -85 0
-16 -144 0
-16 -185 0
-48 -85 0
-48 -144 0
-48 -185 0
-85 -144 0
-85 -185 0
-144 -185 0
-122 -145 0
-122 -272 0
-145 -272 0
-17 -49 0
-17 -86 0
-17 -123 0
-17 -186 0
-17 -273 0
-49 -86 0
-49 -123 0
-49 -186 0
-49 -273 0
-86 -123 0
-86 -186 0
-86 -273 0
-123 -186 0
-123 -273 0
-186 -273 0
-18 -87 0
-18 -274 0
-87 -274 0
-50 -88 0
-50 -124 0
-50 -146 0
-50 -187 0
-88 -124 0
-88 -146 0
-88 -187 0
-124 -146 0
-124 -187 0
-146 -187 0
-19 -51 0
-19 -89 0
-19 -125 0
-19 -147 0
-19 -188 0
-19 -275 0
-51 -89 0
-51 -125 0
-51 -147 0
-51 -188 0
-51 -275 0
-89 -125 0
-89 -147 0
-89 -188 0
-89 -275 0
-125 -147 0
-125 -188 0
-125 -275 0
-147 -188 0
-147 -275 0
-188 -275 0
-148 -189 0
-148 -276 0
-189 -276 0
-20 -52 0
-20 -90 0
-20 -149 0
-20 -190 0
-20 -239 0
-52 -90 0
-52 -149 0
-52 -190 0
-52 -239 0
-90 -149 0
-90 -190 0
-90 -239 0
-149 -190 0
-149 -239 0
-190 -239 0
-126 -150 0
-126 -240 0
-126 -277 0
-150 -240 0
-150 -277 0
-240 -277 0
-21 -53 0
-21 -91 0
-21 -127 0
-21 -191 0
-21 -241 0
-21 -278 0
-53 -91 0
-53 -127 0
-53 -191 0
-53 -241 0
-53 -278 0
-91 -127 0
-91 -191 0
-91 -241 0
-91 -278 0
-127 -191 0
-127 -241 0
-127 -278 0
-191 -241 0
-191 -278 0
-241 -278 0
-54 -92 0
-54 -128 0
-54 -151 0
-54 -192 0
-92 -128 0
-92 -151 0
-92 -192 0
-128 -151 0
-128 -192 0
-151 -192 0
-22 -93 0
-22 -242 0
-22 -279 0
-93 -242 0
-93 -279 0
-242 -279 0
-23 -55 0
-23 -94 0
-23 -129 0
-23 -193 0
-55 -94 0
-55 -129 0
-55 -193 0
-94 -129 0
-94 -193 0
-129 -193 0
-24 -56 0
-24 -95 0
-24 -130 0
-24 -152 0
-24 -194 0
-24 -243 0
-24 -280 0
-56 -95 0
-56 -130 0
-56 -152 0
-56 -194 0
-56 -243 0
-56 -280 0
-95 -130 0
-95 -152 0
-95 -194 0
-95 -243 0
-95 -280 0
-130 -152 0
-130 -194 0
-130 -243 0
-130 -280 0
-152 -194 0
-152 -243 0
-152 -280 0
-194 -243 0
-194 -280 0
-243 -280 0
-25 -218 0
-25 -281 0
-218 -281 0
-26 -96 0
-97 -153 0
-97 -244 0
-97 -282 0
-153 -244 0
-153 -282 0
-244 -282 0
-154 -245 0
-154 -283 0
-245 -283 0
-27 -98 0
-27 -219 0
-27 -284 0
-98 -219 0
-98 -284 0
-219 -284 0
-28 -99 0
-28 -155 0
-28 -220 0
-28 -246 0
-28 -285 0
-99 -155 0
-99 -220 0
-99 -246 0
-99 -285 0
-155 -220 0
-155 -246 0
-155 -285 0
-220 -246 0
-220 -285 0
-246 -285 0
-57 -286 0
-58 -100 0
-58 -247 0
-100 -247 0
-101 -248 0
-101 -287 0
-248 -287 0
-59 -102 0
-59 -131 0
-59 -156 0
-59 -195 0
-59 -249 0
-59 -288 0
-102 -131 0
-102 -156 0
-102 -195 0
-102 -249 0
-102 -288 0
-131 -156 0
-131 -195 0
-131 -249 0
-131 -288 0
-156 -195 0
-156 -249 0
-156 -288 0
-195 -249 0
-195 -288 0
-249 -288 0
-157 -196 0
-157 -250 0
-157 -289 0
-196 -250 0
-196 -289 0
-250 -289 0
-60 -103 0
-60 -132 0
-60 -197 0
-60 -290 0
-103 -132 0
-103 -197 0
-103 -290 0
-132 -197 0
-132 -290 0
-197 -290 0
-61 -104 0
-61 -133 0
-61 -158 0
-61 -198 0
-61 -251 0
-61 -291 0
-104 -133 0
-104 -158 0
-104 -198 0
-104 -251 0
-104 -291 0
-133 -158 0
-133 -198 0
-133 -251 0
-133 -291 0
-158 -198 0
-158 -251 0
-158 -291 0
-198 -251 0
-198 -291 0
-251 -291 0
-29 -62 0
-29 -105 0
-29 -221 0
-29 -252 0
-62 -105 0
-62 -221 0
-62 -252 0
-105 -221 0
-105 -252 0
-221 -252 0
-30 -106 0
-30 -222 0
-30 -253 0
-30 -292 0
-106 -222 0
-106 -253 0
-106 -292 0
-222 -253 0
-222 -292 0
-253 -292 0
-31 -63 0
-31 -107 0
-31 -199 0
-63 -107 0
-63 -199 0
-107 -199 0
-64 -108 0
-64 -159 0
-64 -200 0
-64 -254 0
-64 -293 0
-108 -159 0
-108 -200 0
-108 -254 0
-108 -293 0
-159 -200 0
-159 -254 0
-159 -293 0
-200 -254 0
-200 -293 0
-254 -293 0
-160 -201 0
-160 -223 0
-160 -255 0
-160 -294 0
-201 -223 0
-201 -255 0
-201 -294 0
-223 -255 0
-223 -294 0
-255 -294 0
-161 -202 0
-161 -256 0
-161 -295 0
-202 -256 0
-202 -295 0
-256 -295 0
-32 -65 0
-32 -109 0
-32 -203 0
-32 -224 0
-32 -296 0
-65 -109 0
-65 -203 0
-65 -224 0
-65 -296 0
-109 -203 0
-109 -224 0
-109 -296 0
-203 -224 0
-203 -296 0
-224 -296 0
-33 -66 0
-33 -110 0
-33 -162 0
-33 -204 0
-33 -225 0
-33 -257 0
-33 -297 0
-66 -110 0
-66 -162 0
-66 -204 0
-66 -225 0
-66 -257 0
-66 -297 0
-110 -162 0
-110 -204 0
-110 -225 0
-110 -257 0
-110 -297 0
-162 -204 0
-162 -225 0
-162 -257 0
-162 -297 0
-204 -225 0
-204 -257 0
-204 -297 0
-225 -257 0
-225 -297 0
-257 -297 0
-6 -34 0
-6 -43 0
-34 -43 0
-7 -35 0
-7 -44 0
-7 -67 0
-7 -79 0
-35 -44 0
-35 -67 0
-35 -79 0
-44 -67 0
-44 -79 0
-67 -79 0
-1 -8 0
-1 -68 0
-1 -73 0
-1 -80 0
-8 -68 0
-8 -73 0
-8 -80 0
-68 -73 0
-68 -80 0
-73 -80 0
-2 -9 0
-2 -39 0
-2 -45 0
-2 -74 0
-2 -81 0
-9 -39 0
-9 -45 0
-9 -74 0
-9 -81 0
-39 -45 0
-39 -74 0
-39 -81 0
-45 -74 0
-45 -81 0
-74 -81 0
-3 -10 0
-3 -69 0
-3 -75 0
-3 -82 0
-10 -69 0
-10 -75 0
-10 -82 0
-69 -75 0
-69 -82 0
-75 -82 0
-36 -40 0
-36 -46 0
-36 -70 0
-36 -76 0
-36 -83 0
-40 -46 0
-40 -70 0
-40 -76 0
-40 -83 0
-46 -70 0
-46 -76 0
-46 -83 0
-70 -76 0
-70 -83 0
-76 -83 0
-4 -37 0
-4 -41 0
-4 -71 0
-4 -77 0
-37 -41 0
-37 -71 0
-37 -77 0
-41 -71 0
-41 -77 0
-71 -77 0
-5 -11 0
-5 -38 0
-5 -42 0
-5 -47 0
-5 -72 0
-5 -78 0
-5 -84 0
-11 -38 0
-11 -42 0
-11 -47 0
-11 -72 0
-11 -78 0
-11 -84 0
-38 -42 0
-38 -47 0
-38 -72 0
-38 -78 0
-38 -84 0
-42 -47 0
-42 -72 0
-42 -78 0
-42 -84 0
-47 -72 0
-47 -78 0
-47 -84 0
-72 -78 0
-72 -84 0
-78 -84 0
-12 -16 0
-12 -20 0
-12 -48 0
-12 -52 0
-12 -85 0
-12 -90 0
-16 -20 0
-16 -48 0
-16 -52 0
-16 -85 0
-16 -90 0
-20 -48 0
-20 -52 0
-20 -85 0
-20 -90 0
-48 -52 0
-48 -85 0
-48 -90 0
-52 -85 0
-52 -90 0
-85 -90 0
-13 -17 0
-13 -21 0
-13 -49 0
-13 -53 0
-13 -86 0
-13 -91 0
-17 -21 0
-17 -49 0
-17 -53 0
-17 -86 0
-17 -91 0
-21 -49 0
-21 -53 0
-21 -86 0
-21 -91 0
-49 -53 0
-49 -86 0
-49 -91 0
-53 -86 0
-53 -91 0
-86 -91 0
-54 -92 0
-18 -22 0
-18 -87 0
-18 -93 0
-22 -87 0
-22 -93 0
-87 -93 0
-50 -88 0
-14 -23 0
-14 -55 0
-14 -94 0
-23 -55 0
-23 -94 0
-55 -94 0
-15 -19 0
-15 -24 0
-15 -51 0
-15 -56 0
-15 -89 0
-15 -95 0
-19 -24 0
-19 -51 0
-19 -56 0
-19 -89 0
-19 -95 0
-24 -51 0
-24 -56 0
-24 -89 0
-24 -95 0
-51 -56 0
-51 -89 0
-51 -95 0
-56 -89 0
-56 -95 0
-89 -95 0
-25 -57 0
-29 -58 0
-29 -62 0
-29 -100 0
-29 -105 0
-58 -62 0
-58 -100 0
-58 -105 0
-62 -100 0
-62 -105 0
-100 -105 0
-30 -101 0
-30 -106 0
-101 -106 0
-26 -31 0
-26 -63 0
-26 -96 0
-26 -107 0
-31 -63 0
-31 -96 0
-31 -107 0
-63 -96 0
-63 -107 0
-96 -107 0
-59 -64 0
-59 -97 0
-59 -102 0
-59 -108 0
-64 -97 0
-64 -102 0
-64 -108 0
-97 -102 0
-97 -108 0
-102 -108 0
-27 -32 0
-27 -60 0
-27 -65 0
-27 -98 0
-27 -103 0
-27 -109 0
-32 -60 0
-32 -65 0
-32 -98 0
-32 -103 0
-32 -109 0
-60 -65 0
-60 -98 0
-60 -103 0
-60 -109 0
-65 -98 0
-65 -103 0
-65 -109 0
-98 -103 0
-98 -109 0
-103 -109 0
-28 -33 0
-28 -61 0
-28 -66 0
-28 -99 0
-28 -104 0
-28 -110 0
-33 -61 0
-33 -66 0
-33 -99 0
-33 -104 0
-33 -110 0
-61 -66 0
-61 -99 0
-61 -104 0
-61 -110 0
-66 -99 0
-66 -104 0
-66 -110 0
-99 -104 0
-99 -110 0
-104 -110 0
-163 -172 0
-164 -173 0
-111 -114 0
-111 -118 0
-111 -134 0
-114 -118 0
-114 -134 0
-118 -134 0
-115 -119 0
-115 -135 0
-115 -168 0
-115 -174 0
-119 -135 0
-119 -168 0
-119 -174 0
-135 -168 0
-135 -174 0
-168 -174 0
-136 -165 0
-136 -169 0
-136 -175 0
-165 -169 0
-165 -175 0
-169 -175 0
-112 -116 0
-112 -120 0
-112 -137 0
-112 -166 0
-112 -170 0
-112 -176 0
-116 -120 0
-116 -137 0
-116 -166 0
-116 -170 0
-116 -176 0
-120 -137 0
-120 -166 0
-120 -170 0
-120 -176 0
-137 -166 0
-137 -170 0
-137 -176 0
-166 -170 0
-166 -176 0
-170 -176 0
-113 -117 0
-113 -121 0
-113 -138 0
-113 -167 0
-113 -171 0
-113 -177 0
-117 -121 0
-117 -138 0
-117 -167 0
-117 -171 0
-117 -177 0
-121 -138 0
-121 -167 0
-121 -171 0
-121 -177 0
-138 -167 0
-138 -171 0
-138 -177 0
-167 -171 0
-167 -177 0
-171 -177 0
-143 -148 0
-143 -184 0
-143 -189 0
-148 -184 0
-148 -189 0
-184 -189 0
-139 -144 0
-139 -149 0
-139 -178 0
-139 -185 0
-139 -190 0
-144 -149 0
-144 -178 0
-144 -185 0
-144 -190 0
-149 -178 0
-149 -185 0
-149 -190 0
-178 -185 0
-178 -190 0
-185 -190 0
-122 -126 0
-122 -145 0
-122 -150 0
-126 -145 0
-126 -150 0
-145 -150 0
-123 -127 0
-123 -179 0
-123 -186 0
-123 -191 0
-127 -179 0
-127 -186 0
-127 -191 0
-179 -186 0
-179 -191 0
-186 -191 0
-128 -140 0
-128 -151 0
-128 -180 0
-128 -192 0
-140 -151 0
-140 -180 0
-140 -192 0
-151 -180 0
-151 -192 0
-180 -192 0
-124 -141 0
-124 -146 0
-124 -181 0
-124 -187 0
-141 -146 0
-141 -181 0
-141 -187 0
-146 -181 0
-146 -187 0
-181 -187 0
-129 -182 0
-129 -193 0
-182 -193 0
-125 -130 0
-125 -142 0
-125 -147 0
-125 -152 0
-125 -183 0
-125 -188 0
-125 -194 0
-130 -142 0
-130 -147 0
-130 -152 0
-130 -183 0
-130 -188 0
-130 -194 0
-142 -147 0
-142 -152 0
-142 -183 0
-142 -188 0
-142 -194 0
-147 -152 0
-147 -183 0
-147 -188 0
-147 -194 0
-152 -183 0
-152 -188 0
-152 -194 0
-183 -188 0
-183 -194 0
-188 -194 0
-131 -153 0
-131 -156 0
-131 -159 0
-131 -195 0
-131 -200 0
-153 -156 0
-153 -159 0
-153 -195 0
-153 -200 0
-156 -159 0
-156 -195 0
-156 -200 0
-159 -195 0
-159 -200 0
-195 -200 0
-157 -160 0
-157 -196 0
-157 -201 0
-160 -196 0
-160 -201 0
-196 -201 0
-154 -161 0
-154 -202 0
-161 -202 0
-132 -197 0
-132 -203 0
-197 -203 0
-133 -155 0
-133 -158 0
-133 -162 0
-133 -198 0
-133 -204 0
-155 -158 0
-155 -162 0
-155 -198 0
-155 -204 0
-158 -162 0
-158 -198 0
-158 -204 0
-162 -198 0
-162 -204 0
-198 -204 0
-205 -209 0
-205 -213 0
-205 -226 0
-205 -230 0
-205 -258 0
-205 -263 0
-209 -213 0
-209 -226 0
-209 -230 0
-209 -258 0
-209 -263 0
-213 -226 0
-213 -230 0
-213 -258 0
-213 -263 0
-226 -230 0
-226 -258 0
-226 -263 0
-230 -258 0
-230 -263 0
-258 -263 0
-231 -264 0
-232 -265 0
-206 -210 0
-206 -214 0
-206 -227 0
-206 -233 0
-206 -259 0
-206 -266 0
-210 -214 0
-210 -227 0
-210 -233 0
-210 -259 0
-210 -266 0
-214 -227 0
-214 -233 0
-214 -259 0
-214 -266 0
-227 -233 0
-227 -259 0
-227 -266 0
-233 -259 0
-233 -266 0
-259 -266 0
-228 -234 0
-228 -260 0
-228 -267 0
-234 -260 0
-234 -267 0
-260 -267 0
-207 -211 0
-207 -261 0
-211 -261 0
-208 -212 0
-208 -215 0
-208 -229 0
-208 -235 0
-208 -262 0
-208 -268 0
-212 -215 0
-212 -229 0
-212 -235 0
-212 -262 0
-212 -268 0
-215 -229 0
-215 -235 0
-215 -262 0
-215 -268 0
-229 -235 0
-229 -262 0
-229 -268 0
-235 -262 0
-235 -268 0
-262 -268 0
-271 -276 0
-216 -236 0
-216 -239 0
-236 -239 0
-240 -272 0
-240 -277 0
-272 -277 0
-237 -241 0
-237 -269 0
-237 -273 0
-237 -278 0
-241 -269 0
-241 -273 0
-241 -278 0
-269 -273 0
-269 -278 0
-273 -278 0
-242 -274 0
-242 -279 0
-274 -279 0
-217 -238 0
-217 -243 0
-217 -270 0
-217 -275 0
-217 -280 0
-238 -243 0
-238 -270 0
-238 -275 0
-238 -280 0
-243 -270 0
-243 -275 0
-243 -280 0
-270 -275 0
-270 -280 0
-275 -280 0
-218 -281 0
-218 -286 0
-281 -286 0
-221 -247 0
-221 -252 0
-247 -252 0
-222 -248 0
-222 -253 0
-222 -287 0
-222 -292 0
-248 -253 0
-248 -287 0
-248 -292 0
-253 -287 0
-253 -292 0
-287 -292 0
-244 -249 0
-244 -254 0
-244 -282 0
-244 -288 0
-244 -293 0
-249 -254 0
-249 -282 0
-249 -288 0
-249 -293 0
-254 -282 0
-254 -288 0
-254 -293 0
-282 -288 0
-282 -293 0
-288 -293 0
-223 -250 0
-223 -255 0
-223 -289 0
-223 -294 0
-250 -255 0
-250 -289 0
-250 -294 0
-255 -289 0
-255 -294 0
-289 -294 0
-245 -256 0
-245 -283 0
-245 -295 0
-256 -283 0
-256 -295 0
-283 -295 0
-219 -224 0
-219 -284 0
-219 -290 0
-219 -296 0
-224 -284 0
-224 -290 0
-224 -296 0
-284 -290 0
-284 -296 0
-290 -296 0
-220 -225 0
-220 -246 0
-220 -251 0
-220 -257 0
-220 -285 0
-220 -291 0
-220 -297 0
-225 -246 0
-225 -251 0
-225 -257 0
-225 -285 0
-225 -291 0
-225 -297 0
-246 -251 0
-246 -257 0
-246 -285 0
-246 -291 0
-246 -297 0
-251 -257 0
-251 -285 0
-251 -291 0
-251 -297 0
-257 -285 0
-257 -291 0
-257 -297 0
-285 -291 0
-285 -297 0
-291 -297 0
1 2 3 4 5 0
6 7 8 9 10 11 0
12 13 14 15 0
16 17 18 19 0
20 21 22 23 24 0
25 26 27 28 0
29 30 31 32 33 0
34 35 36 37 38 0
39 40 41 42 0
43 44 45 46 47 0
48 49 50 51 0
52 53 54 55 56 0
57 58 59 60 61 0
62 63 64 65 66 0
67 68 69 70 71 72 0
73 74 75 76 77 78 0
79 80 81 82 83 84 0
85 86 87 88 89 0
90 91 92 93 94 95 0
96 97 98 99 0
100 101 102 103 104 0
105 106 107 108 109 110 0
111 112 113 0
114 115 116 117 0
118 119 120 121 0
122 123 124 125 0
126 127 128 129 130 0
131 132 133 0
134 135 136 137 138 0
139 140 141 142 0
143 144 145 146 147 0
148 149 150 151 152 0
153 154 155 0
156 157 158 0
159 160 161 162 0
163 164 165 166 167 0
168 169 170 171 0
172 173 174 175 176 177 0
178 179 180 181 182 183 0
184 185 186 187 188 0
189 190 191 192 193 194 0
195 196 197 198 0
199 200 201 202 203 204 0
205 206 207 208 0
209 210 211 212 0
213 214 215 0
216 217 0
218 219 220 0
221 222 223 224 225 0
226 227 228 229 0
230 231 232 233 234 235 0
236 237 238 0
239 240 241 242 243 0
244 245 246 0
247 248 249 250 251 0
252 253 254 255 256 257 0
258 259 260 261 262 0
263 264 265 266 267 268 0
269 270 0
271 272 273 274 275 0
276 277 278 279 280 0
281 282 283 284 285 0
286 287 288 289 290 291 0
292 293 294 295 296 297 0
6 25 0
7 12 16 20 29 0
1 8 30 0
2 9 13 17 21 26 31 0
3 10 18 22 0
4 14 23 27 32 0
5 11 15 19 24 28 33 0
34 43 57 0
35 44 48 52 58 62 0
39 45 49 53 63 0
54 59 64 0
36 40 46 50 0
37 41 55 60 65 0
38 42 47 51 56 61 66 0
67 79 85 90 100 105 0
68 73 80 101 106 0
74 81 86 91 96 107 0
92 97 102 108 0
69 75 82 87 93 0
70 76 83 88 0
71 77 94 98 103 109 0
72 78 84 89 95 99 104 110 0
111 114 118 122 126 0
123 127 0
115 119 128 131 0
112 116 120 124 0
129 132 0
113 117 121 125 130 133 0
143 148 0
139 144 149 0
134 145 150 0
135 140 151 153 156 159 0
136 157 160 0
137 141 146 154 161 0
138 142 147 152 155 158 162 0
163 172 184 189 0
164 173 178 185 190 0
179 186 191 199 0
168 174 180 192 195 200 0
165 169 175 196 201 0
166 170 176 181 187 202 0
182 193 197 203 0
167 171 177 183 188 194 198 204 0
218 0
216 221 0
205 209 213 222 0
206 210 214 223 0
207 211 219 224 0
208 212 215 217 220 225 0
236 239 247 252 0
226 230 240 248 253 0
231 237 241 0
232 244 249 254 0
227 233 242 250 255 0
228 234 245 256 0
229 235 238 243 246 251 257 0
271 276 281 286 0
258 263 272 277 287 292 0
264 269 273 278 0
265 282 288 293 0
259 266 274 279 289 294 0
260 267 283 295 0
261 284 290 296 0
262 268 270 275 280 285 291 297 0
34 163 0
35 67 164 0
68 111 205 226 258 0
69 165 206 227 259 0
36 70 112 166 228 260 0
37 71 207 261 0
38 72 113 167 208 229 262 0
1 73 114 134 209 0
2 39 74 0
115 135 168 0
3 75 136 169 210 0
40 76 116 137 170 0
4 41 77 211 0
5 42 78 117 138 171 212 0
6 43 172 0
7 44 79 173 0
8 80 118 213 230 263 0
9 45 81 231 264 0
119 174 232 265 0
10 82 175 214 233 266 0
46 83 120 176 234 267 0
11 47 84 121 177 215 235 268 0
12 139 178 216 236 0
13 179 237 269 0
140 180 0
141 181 0
14 182 0
15 142 183 217 238 270 0
143 184 271 0
16 48 85 144 185 0
122 145 272 0
17 49 86 123 186 273 0
18 87 274 0
50 88 124 146 187 0
19 51 89 125 147 188 275 0
148 189 276 0
20 52 90 149 190 239 0
126 150 240 277 0
21 53 91 127 191 241 278 0
54 92 128 151 192 0
22 93 242 279 0
23 55 94 129 193 0
24 56 95 130 152 194 243 280 0
25 218 281 0
26 96 0
97 153 244 282 0
154 245 283 0
27 98 219 284 0
28 99 155 220 246 285 0
57 286 0
58 100 247 0
101 248 287 0
59 102 131 156 195 249 288 0
157 196 250 289 0
60 103 132 197 290 0
61 104 133 158 198 251 291 0
29 62 105 221 252 0
30 106 222 253 292 0
31 63 107 199 0
64 108 159 200 254 293 0
160 201 223 255 294 0
161 202 256 295 0
32 65 109 203 224 296 0
33 66 110 162 204 225 257 297 0
6 34 43 0
7 35 44 67 79 0
1 8 68 73 80 0
2 9 39 45 74 81 0
3 10 69 75 82 0
36 40 46 70 76 83 0
4 37 41 71 77 0
5 11 38 42 47 72 78 84 0
12 16 20 48 52 85 90 0
13 17 21 49 53 86 91 0
54 92 0
18 22 87 93 0
50 88 0
14 23 55 94 0
15 19 24 51 56 89 95 0
25 57 0
29 58 62 100 105 0
30 101 106 0
26 31 63 96 107 0
59 64 97 102 108 0
27 32 60 65 98 103 109 0
28 33 61 66 99 104 110 0
163 172 0
164 173 0
111 114 118 134 0
115 119 135 168 174 0
136 165 169 175 0
112 116 120 137 166 170 176 0
113 117 121 138 167 171 177 0
143 148 184 189 0
139 144 149 178 185 190 0
122 126 145 150 0
123 127 179 186 191 0
128 140 151 180 192 0
124 141 146 181 187 0
129 182 193 0
125 130 142 147 152 183 188 194 0
199 0
131 153 156 159 195 200 0
157 160 196 201 0
154 161 202 0
132 197 203 0
133 155 158 162 198 204 0
205 209 213 226 230 258 263 0
231 264 0
232 265 0
206 210 214 227 233 259 266 0
228 234 260 267 0
207 211 261 0
208 212 215 229 235 262 268 0
271 276 0
216 236 239 0
240 272 277 0
237 241 269 273 278 0
242 274 279 0
217 238 243 270 275 280 0
218 281 286 0
221 247 252 0
222 248 253 287 292 0
244 249 254 282 288 293 0
223 250 255 289 294 0
245 256 283 295 0
219 224 284 290 296 0
220 225 246 251 257 285 291 297 0
